benchmarks_vrp/CMT2/tsp_classic/CMT2_2.vrp
NAME: CMT2_2
TYPE: CVRP
COMMENT: 835.26 - Cluster Nr.2
DIMENSION: 7
CAPACITY: 140
EDGE_WEIGHT_TYPE: EUC_2D
NODE_COORD_TYPE: TWOD_COORDS
NODE_COORD_SECTION: 
3 48 21
6 44 13
5 35 16
7 50 15
1 40 40
2 36 6
4 40 20
DEPOT_SECTION: 
1
-1
DEMAND_SECTION: 
3 20
7 19
4 10
2 15
5 29
1 0
6 28
EOF
