benchmarks_vrp/CMT2/tsp_classic/CMT2_2.tour
NAME: CMT2_2 solution
TYPE: TOUR
TOUR_SECTION:
1 3 7 6 2 5 4 -1
-1
EOF